Input: ticf-13crafc.original.dzn
============================================================
Total Runtime: 6647.0423 seconds
Input parsing: 0.0009 seconds
Constraint building: 1.4303 seconds
Incremental SAT solving: 6645.6110 seconds
============================================================

Total variables: 181662
Total clauses: 362087
Incremental SAT found with cost: 1
SCHEDULE:
Meeting 1 → Time slot 1
Meeting 2 → Time slot 4
Meeting 3 → Time slot 2
Meeting 4 → Time slot 8
Meeting 5 → Time slot 6
Meeting 6 → Time slot 5
Meeting 7 → Time slot 7
Meeting 8 → Time slot 3
Meeting 9 → Time slot 9
Meeting 10 → Time slot 14
Meeting 11 → Time slot 5
Meeting 12 → Time slot 1
Meeting 13 → Time slot 8
Meeting 14 → Time slot 7
Meeting 15 → Time slot 4
Meeting 16 → Time slot 2
Meeting 17 → Time slot 3
Meeting 18 → Time slot 6
Meeting 19 → Time slot 3
Meeting 20 → Time slot 6
Meeting 21 → Time slot 2
Meeting 22 → Time slot 1
Meeting 23 → Time slot 4
Meeting 24 → Time slot 5
Meeting 25 → Time slot 3
Meeting 26 → Time slot 4
Meeting 27 → Time slot 3
Meeting 28 → Time slot 1
Meeting 29 → Time slot 7
Meeting 30 → Time slot 5
Meeting 31 → Time slot 4
Meeting 32 → Time slot 6
Meeting 33 → Time slot 2
Meeting 34 → Time slot 7
Meeting 35 → Time slot 9
Meeting 36 → Time slot 13
Meeting 37 → Time slot 10
Meeting 38 → Time slot 8
Meeting 39 → Time slot 11
Meeting 40 → Time slot 12
Meeting 41 → Time slot 12
Meeting 42 → Time slot 13
Meeting 43 → Time slot 14
Meeting 44 → Time slot 16
Meeting 45 → Time slot 15
Meeting 46 → Time slot 4
Meeting 47 → Time slot 2
Meeting 48 → Time slot 3
Meeting 49 → Time slot 7
Meeting 50 → Time slot 8
Meeting 51 → Time slot 10
Meeting 52 → Time slot 5
Meeting 53 → Time slot 9
Meeting 54 → Time slot 4
Meeting 55 → Time slot 12
Meeting 56 → Time slot 11
Meeting 57 → Time slot 6
Meeting 58 → Time slot 11
Meeting 59 → Time slot 12
Meeting 60 → Time slot 13
Meeting 61 → Time slot 10
Meeting 62 → Time slot 3
Meeting 63 → Time slot 12
Meeting 64 → Time slot 14
Meeting 65 → Time slot 11
Meeting 66 → Time slot 13
Meeting 67 → Time slot 10
Meeting 68 → Time slot 5
Meeting 69 → Time slot 2
Meeting 70 → Time slot 7
Meeting 71 → Time slot 3
Meeting 72 → Time slot 9
Meeting 73 → Time slot 8
Meeting 74 → Time slot 11
Meeting 75 → Time slot 10
Meeting 76 → Time slot 4
Meeting 77 → Time slot 6
Meeting 78 → Time slot 7
Meeting 79 → Time slot 6
Meeting 80 → Time slot 12
Meeting 81 → Time slot 11
Meeting 82 → Time slot 13
Meeting 83 → Time slot 10
Meeting 84 → Time slot 3
Meeting 85 → Time slot 8
Meeting 86 → Time slot 9
Meeting 87 → Time slot 4
Meeting 88 → Time slot 5
Meeting 89 → Time slot 4
Meeting 90 → Time slot 6
Meeting 91 → Time slot 8
Meeting 92 → Time slot 9
Meeting 93 → Time slot 3
Meeting 94 → Time slot 5
Meeting 95 → Time slot 10
Meeting 96 → Time slot 11
Meeting 97 → Time slot 2
Meeting 98 → Time slot 7
Meeting 99 → Time slot 13
Meeting 100 → Time slot 12
Meeting 101 → Time slot 11
Meeting 102 → Time slot 9
Meeting 103 → Time slot 10
Meeting 104 → Time slot 8
Meeting 105 → Time slot 4
Meeting 106 → Time slot 6
Meeting 107 → Time slot 2
Meeting 108 → Time slot 7
Meeting 109 → Time slot 8
Meeting 110 → Time slot 5
Meeting 111 → Time slot 1
Meeting 112 → Time slot 9
Meeting 113 → Time slot 3
Meeting 114 → Time slot 6
Meeting 115 → Time slot 13
Meeting 116 → Time slot 10
Meeting 117 → Time slot 11
Meeting 118 → Time slot 5
Meeting 119 → Time slot 12
Meeting 120 → Time slot 9
Meeting 121 → Time slot 7
Meeting 122 → Time slot 10
Meeting 123 → Time slot 6
Meeting 124 → Time slot 15
Meeting 125 → Time slot 14
Meeting 126 → Time slot 9
Meeting 127 → Time slot 16
Meeting 128 → Time slot 12
Meeting 129 → Time slot 7
Meeting 130 → Time slot 5
Meeting 131 → Time slot 11
Meeting 132 → Time slot 13
Meeting 133 → Time slot 8
Meeting 134 → Time slot 2
Meeting 135 → Time slot 5
Meeting 136 → Time slot 3
Meeting 137 → Time slot 4
Meeting 138 → Time slot 6
Meeting 139 → Time slot 7
Meeting 140 → Time slot 12
Meeting 141 → Time slot 10
Meeting 142 → Time slot 11
Meeting 143 → Time slot 1
Meeting 144 → Time slot 15
Meeting 145 → Time slot 9
Meeting 146 → Time slot 8
Meeting 147 → Time slot 14
Meeting 148 → Time slot 13
Meeting 149 → Time slot 12
Meeting 150 → Time slot 8
Meeting 151 → Time slot 9
Meeting 152 → Time slot 13
Meeting 153 → Time slot 10
Meeting 154 → Time slot 11
Checking hard constraints...
All hard constraints are satisfied
